(set-info :Origin "This instance was generated by: BanditFuzz-- an RL fuzzer for SMT solvers" )
(set-info :Author "Joe Scott, Fed Mora, Vijay Ganesh" )
(set-info :Contact "Joe Scott, joseph.scott@uwaterloo.ca")
(set-logic QF_BV)
(declare-const bool_0 Bool)
(declare-const bool_1 Bool)
(declare-const bool_2 Bool)
(declare-const bool_3 Bool)
(declare-const bool_4 Bool)
(declare-const bv_0 (_ BitVec 32))
(declare-const bv_1 (_ BitVec 32))
(declare-const bv_2 (_ BitVec 32))
(declare-const bv_3 (_ BitVec 32))
(declare-const bv_4 (_ BitVec 32))
(assert (or (=> (bvsge #x1559fd19  bv_1) (bvsle bv_4 #x1ceafd25 )) (bvult (bvshl bv_3 #x8bc2aa14 ) (bvsrem bv_3 #xee26d32e ))))
(assert (bvule (bvashr (bvashr bv_0 bv_2) (bvnor bv_0 bv_2)) (bvashr (bvsrem bv_3 bv_2) (bvudiv #xe74d5f1b  bv_4))))
(assert (not (not (bvslt bv_3 bv_2))))
(assert (not (bvule (bvadd bv_2 #x10223c69 ) (bvmul #x20d4bb33  #x93070b08 ))))
(assert (=> (bvsgt (bvxnor #xb8ae50ee  #xb7f312ff ) (bvxnor #x2e13ed31  #x3ad37bea )) (not (bvsle #x5ac8397e  #xec5b5da5 ))))
(check-sat)
(exit)
